(declare-const d Real)
(assert (< 0 d))
(declare-const c Real)
(assert (< 0 c))
(declare-const b Real)
(assert (< 0 b))
(declare-const a Real)
(assert (< 0 a))
(assert (not (and (<= 1 (+ (/ c (+ d (+ b c))) (+ (+ (/ a (+ b (+ a d))) (/ b (+ a (+ b c)))) (/ d (+ a (+ d c)))))) (<= (+ (/ c (+ d (+ b c))) (+ (+ (/ a (+ b (+ a d))) (/ b (+ a (+ b c)))) (/ d (+ a (+ d c))))) 2))))
(check-sat)
(get-model)
(exit)
